%CPU=0-7
%chk=0.chk
#N B2PLYP/cc-pvtz scf=(xqc,fermi) FCHK freq

O2H

0 2
O	0.011104303021882806	1.4882029098819973	-0.0022640847941618066
O	0.010463889851660508	-1.4142639296353596	0.0009746926241394144
H	0.14654268807810564	-0.6018544228831356	0.020466993159370866

