%CPU=0-7
%chk=0.chk
#N B2PLYP/cc-pvtz scf=(xqc,fermi) FCHK freq

O2H

0 2
O	0.03176495472731188	1.4887757302541718	-0.005081872436744312
O	0.03266434921888893	-1.4092628258327784	0.002007758887711277
H	-0.5338073927757907	-0.690331358456291	0.04879652788499231

