%CPU=0-7
%chk=0.chk
#N B2PLYP/cc-pvtz scf=(xqc,fermi) FCHK freq

O2H

0 2
[coord]





